=====UNKNOWN=====
% time elapsed: 1800.14 s
%%%mzn-stat: initTime=0.033694561
%%%mzn-stat: nodes=7030781
%%%mzn-stat: restarts=12367
%%%mzn-stat: peakDepth=589
%%%mzn-stat: solveTime=1796.295356065
%%%mzn-stat: variables=1820
%%%mzn-stat: propagators=12639
%%%mzn-stat: failures=3427853
%%%mzn-stat: propagations=2406413292
%%%mzn-stat: nogoods=3427853
%%%mzn-stat: AverageConflictSize=8.487190086622734
%%%mzn-stat: NumUnitNogoodsLearned=169
%%%mzn-stat: AverageLearnedNogoodLength=19.925312433176103
%%%mzn-stat: AverageBacktrackAmount=0
%%%mzn-stat: AverageLbd=11.018553304356983
%%%mzn-stat-end
